Traveling Salesman Problem/TSP_generados/Aleatorio1621103321_9.tsp
NAME: Aleatorio1621103321_9.tsp
COMMENT: Randomly generated scenario
TYPE: TSP
DIMENSION: 9
EDGE_WEIGHT_TYPE: ATT
NODE_COORD_SECTION
1 30.34 9.62
2 38.87 30.11
3 33.86 16.59
4 40.56 34.54
5 42.81 1.14
6 0.96 4.56
7 45.53 6.74
8 41.7 23.78
9 41.99 45.93
