Traveling Salesman Problem/TSP_generados/Aleatorio1621103321_9.opt.tour
NAME: Aleatorio1621103321_9.opt.tour
COMMENT: Optimal solution for Aleatorio1621103321_9 (156.09235244644276)
TYPE: TOUR
DIMENSION: 9
TOUR_SECTION
1 3 2 4 9 8 7 5 6
-1
EOF
